18 14 20 5 8 4 12 19 12 1 12 14 
10 17 19 13 14 2 20 7 13 4 13 15 
1 7 3 2 3 15 11 7 9 6 9 9 
12 13 5 14 7 12 1 2 12 20 18 13 
18 2 6 20 4 8 17 3 12 7 14 17 
3 12 10 4 13 18 14 17 13 15 10 19 
12 14 8 4 5 20 8 15 12 8 10 8 
2 17 10 7 7 1 3 19 9 5 16 3 
6 19 11 14 19 8 5 3 9 9 1 2 
18 4 3 19 5 14 11 15 8 11 14 18 
12 20 4 14 3 8 17 4 20 4 6 10 
16 17 16 6 5 18 9 2 13 9 14 10 
